\ Model TSP0
\ LP format - for model browsing. Use MPS format to capture full model detail.
Minimize
  353.1713465161068 C0 + 456.0010964899097 C1 + 588.1538914263851 C2
   + 157.746632293688 C3 + 638.758952970524 C4 + 356.8991454178617 C5
   + 137.8187215148944 C6 + 297.038718015009 C7 + 671.3337471034806 C8
   + 432.0046296048226 C9 + 273.9963503406569 C10 + 858.6017703219578 C11
   + 589.9237238830118 C12 + 430.600743148453 C13 + 883.249681573676 C14
   + 152.1610988393551 C15 + 174.0028735394907 C16 + 179.4017837146554 C17
   + 409.71819583709 C18 + 263.6380093992518 C19 + 596.4436268416321 C20
   + 375.9601042663969 C21 + 846.633923251366 C22 + 360.4233621728758 C23
   + 241.7602117801852 C24 + 476.5228221187313 C25 + 947.937234209101 C26
   + 613.0595403384568 C27 + 499.2354154104054 C28 + 1068.429220865847 C29
   + 854.9549695744215 C30 + 465.2622916162452 C31 + 1067.970037032875 C32
   + 244.476992782552 C33 + 291.4463930125058 C34 + 191.8150150535666 C35
   + 399.9062390110962 C36 + 368.0054347424777 C37 + 376.0013297848826 C38
   + 709.5294215182341 C39 + 205.5480479109447 C40 + 319.4010018769509 C41
   + 393.9708111015332 C42 + 860.9297300012354 C43 + 490.462027072433 C44
   + 442.5573409175358 C45 + 916.2226803566914 C46 + 764.7646696860414 C47
   + 281.2614442116089 C48 + 898.1542183834578 C49 + 428.896257852642 C50
   + 489.3608075847513 C51 + 288.7213189218974 C52 + 210.6418761785035 C53
   + 434.9402257782097 C54 + 423.6271945944925 C55 + 253.2548123925782 C56
   + 500.4967532362223 C57 + 325.0246144525057 C58 + 624.5926672640338 C59
   + 291.4463930125058 C60 + 379.8855090681928 C61 + 592.1655174020183 C62
   + 538.0343855182492 C63 + 158.4171707865028 C64 + 556.9425464085142 C65
   + 653.4370665947869 C66 + 711.0063290857544 C67 + 508.1299046503758 C68
   + 202.6474771616958 C69 + 505.478980769725 C70 + 223.6000894454204 C71
   + 141.9084211736569 C72 + 142.6183718880565 C73 + 575.9453099036401 C74
   + 284.2534080710379 C75 + 135.092560861063 C76 + 729.1344183345071 C77
   + 485.569768416445 C78 + 279.8303057211638 C79 + 745.3388491149512 C80
   + 269.3120866207085 C81 + 312.7570942440794 C82 + 187.3846311734236 C83
   + 271.6486701605587 C84 + 511.3139935499517 C85 + 642.1752097364083 C86
   + 374.370137697974 C87 + 217.3476477903545 C88 + 233.5743992821131 C89
   + 370.9838271407529 C90 + 224.1428116179504 C91 + 159.5900999435742 C92
   + 429.7766861987747 C93 + 245.7254565567027 C94 + 773.1752712031083 C95
   + 810.388795579011 C96 + 679.8411579185244 C97 + 499.0490957811666 C98
   + 251.1911622649173 C99 + 193.6310925445601 C100
   + 655.4769256045555 C101 + 286.3092733391638 C102
   + 247.5419156425837 C103 + 725.1717038053815 C104
   + 559.2897281373939 C105 + 105.5367234662892 C106
   + 715.8219052250357 C107 + 402.1964694027037 C108
   + 461.0683246548173 C109 + 255.049014897137 C110
   + 54.03702434442518 C111 + 269.5366394388711 C112
   + 717.5242156192361 C113 + 414.1618041297386 C114
   + 275.2235455043772 C115 + 866.3053734105544 C116
   + 627.4679274672133 C117 + 343.4020966738555 C118
   + 878.0523902364824 C119 + 153.6522046701576 C120
   + 210.535032714273 C121 + 50.20956084253277 C122
   + 305.1245647272602 C123 + 478.9958246164574 C124
   + 144.6789549312546 C125 + 59.07622195096772 C126
   + 598.3385329393386 C127 + 383.6587024948086 C128
   + 190.0657780874821 C129 + 608.5211582188413 C130
   + 409.8938887077972 C131 + 455.2021528947332 C132
   + 305.5306858565928 C133 + 218.579504986172 C134
   + 372.6781453211336 C135 + 448.8128786030989 C136
   + 277.5463925184401 C137 + 96.21330469326995 C138
   + 595.7616973253652 C139 + 349.1947880481609 C140
   + 820.7313811473276 C141 + 843.9206123800982 C142
   + 763.1199119404499 C143 + 657.7613549000884 C144
   + 158.7765725792064 C145 + 456.2071897723665 C146
   + 277.2760357477725 C147 + 224.2699266508999 C148
   + 463.9073183298578 C149 + 553.2964847168288 C150
   + 596.4436268416321 C151 + 449.0178170184341 C152
   + 285.112258592997 C153 + 594.3037943678301 C154
   + 355.8201793040974 C155 + 249.0080319989699 C156
   + 612.5520386057009 C157 + 402.3046109604015 C158
   + 441.5620001766457 C159 + 317.4791331725598 C160
   + 276.2480769163832 C161 + 300.4213707444928 C162
   + 635.1094393882049 C163 + 83.60023923410746 C164
   + 995.9317245675027 C165 + 1031.43104471409 C166
   + 903.8628214502464 C167 + 706.3441087741867 C168
   + 501.0279433325052 C169 + 356.2078045186545 C170
   + 736.9185843768631 C171 + 763.6707405682112 C172
   + 672.0305052599919 C173 + 562.1538935202708 C174
   + 619.6878246343073 C175 + 496.8581286443848 C176
   + 553.6370652331724 C177 + 354.5193929815406 C178
   + 71.56814934033156 C179 + 1014.416581094769 C180
   + 1053.768950007543 C181 + 912.3425891626456 C182
   + 691.2286163057777 C183 + 61.40032573203501 C184
   + 151.2084653714864 C185 + 455.642403645666 C186
   + 212.2686976452251 C187 + 514.7737367038066 C188
   + 307.5093494513622 C189
Subject To
 R0: C0 + C1 + C2 + C3 + C4 + C5 + C6 + C7 + C8 + C9 + C10 + C11 + C12
   + C13 + C14 + C15 + C16 + C17 + C18 = 2
 R1: C0 + C19 + C20 + C21 + C22 + C23 + C24 + C25 + C26 + C27 + C28 + C29
   + C30 + C31 + C32 + C33 + C34 + C35 + C36 = 2
 R2: C1 + C19 + C37 + C38 + C39 + C40 + C41 + C42 + C43 + C44 + C45 + C46
   + C47 + C48 + C49 + C50 + C51 + C52 + C53 = 2
 R3: C2 + C20 + C37 + C54 + C55 + C56 + C57 + C58 + C59 + C60 + C61 + C62
   + C63 + C64 + C65 + C66 + C67 + C68 + C69 = 2
 R4: C3 + C21 + C38 + C54 + C70 + C71 + C72 + C73 + C74 + C75 + C76 + C77
   + C78 + C79 + C80 + C81 + C82 + C83 + C84 = 2
 R5: C4 + C22 + C39 + C55 + C70 + C85 + C86 + C87 + C88 + C89 + C90 + C91
   + C92 + C93 + C94 + C95 + C96 + C97 + C98 = 2
 R6: C5 + C23 + C40 + C56 + C71 + C85 + C99 + C100 + C101 + C102 + C103
   + C104 + C105 + C106 + C107 + C108 + C109 + C110 + C111 = 2
 R7: C6 + C24 + C41 + C57 + C72 + C86 + C99 + C112 + C113 + C114 + C115
   + C116 + C117 + C118 + C119 + C120 + C121 + C122 + C123 = 2
 R8: C7 + C25 + C42 + C58 + C73 + C87 + C100 + C112 + C124 + C125 + C126
   + C127 + C128 + C129 + C130 + C131 + C132 + C133 + C134 = 2
 R9: C8 + C26 + C43 + C59 + C74 + C88 + C101 + C113 + C124 + C135 + C136
   + C137 + C138 + C139 + C140 + C141 + C142 + C143 + C144 = 2
 R10: C9 + C27 + C44 + C60 + C75 + C89 + C102 + C114 + C125 + C135 + C145
   + C146 + C147 + C148 + C149 + C150 + C151 + C152 + C153 = 2
 R11: C10 + C28 + C45 + C61 + C76 + C90 + C103 + C115 + C126 + C136 + C145
   + C154 + C155 + C156 + C157 + C158 + C159 + C160 + C161 = 2
 R12: C11 + C29 + C46 + C62 + C77 + C91 + C104 + C116 + C127 + C137 + C146
   + C154 + C162 + C163 + C164 + C165 + C166 + C167 + C168 = 2
 R13: C12 + C30 + C47 + C63 + C78 + C92 + C105 + C117 + C128 + C138 + C147
   + C155 + C162 + C169 + C170 + C171 + C172 + C173 + C174 = 2
 R14: C13 + C31 + C48 + C64 + C79 + C93 + C106 + C118 + C129 + C139 + C148
   + C156 + C163 + C169 + C175 + C176 + C177 + C178 + C179 = 2
 R15: C14 + C32 + C49 + C65 + C80 + C94 + C107 + C119 + C130 + C140 + C149
   + C157 + C164 + C170 + C175 + C180 + C181 + C182 + C183 = 2
 R16: C15 + C33 + C50 + C66 + C81 + C95 + C108 + C120 + C131 + C141 + C150
   + C158 + C165 + C171 + C176 + C180 + C184 + C185 + C186 = 2
 R17: C16 + C34 + C51 + C67 + C82 + C96 + C109 + C121 + C132 + C142 + C151
   + C159 + C166 + C172 + C177 + C181 + C184 + C187 + C188 = 2
 R18: C17 + C35 + C52 + C68 + C83 + C97 + C110 + C122 + C133 + C143 + C152
   + C160 + C167 + C173 + C178 + C182 + C185 + C187 + C189 = 2
 R19: C18 + C36 + C53 + C69 + C84 + C98 + C111 + C123 + C134 + C144 + C153
   + C161 + C168 + C174 + C179 + C183 + C186 + C188 + C189 = 2
 R20: C19 + C20 + C21 + C23 + C24 + C25 + C27 + C28 + C31 + C35 + C36 + C37
   + C38 + C40 + C41 + C42 + C44 + C45 + C48 + C52 + C53 + C54 + C56 + C57
   + C58 + C60 + C61 + C64 + C68 + C69 + C71 + C72 + C73 + C75 + C76 + C79
   + C83 + C84 + C99 + C100 + C102 + C103 + C106 + C110 + C111 + C112
   + C114 + C115 + C118 + C122 + C123 + C125 + C126 + C129 + C133 + C134
   + C145 + C148 + C152 + C153 + C156 + C160 + C161 + C178 + C179 + C189
   <= 11
 R21: C19 + C20 + C21 + C23 + C24 + C25 + C27 + C28 + C31 + C35 + C36 + C37
   + C38 + C40 + C41 + C42 + C44 + C45 + C48 + C52 + C53 + C54 + C56 + C57
   + C58 + C60 + C61 + C64 + C68 + C69 + C71 + C72 + C73 + C75 + C76 + C79
   + C83 + C84 + C99 + C100 + C102 + C103 + C106 + C110 + C111 + C112
   + C114 + C115 + C118 + C122 + C123 + C125 + C126 + C129 + C133 + C134
   + C145 + C148 + C152 + C153 + C156 + C160 + C161 + C178 + C179 + C189
   <= 11
 R22: C19 + C20 + C21 + C23 + C24 + C25 + C27 + C28 + C31 + C35 + C36 + C37
   + C38 + C40 + C41 + C42 + C44 + C45 + C48 + C52 + C53 + C54 + C56 + C57
   + C58 + C60 + C61 + C64 + C68 + C69 + C71 + C72 + C73 + C75 + C76 + C79
   + C83 + C84 + C99 + C100 + C102 + C103 + C106 + C110 + C111 + C112
   + C114 + C115 + C118 + C122 + C123 + C125 + C126 + C129 + C133 + C134
   + C145 + C148 + C152 + C153 + C156 + C160 + C161 + C178 + C179 + C189
   <= 11
 R23: C19 + C20 + C21 + C23 + C24 + C25 + C27 + C28 + C31 + C35 + C36 + C37
   + C38 + C40 + C41 + C42 + C44 + C45 + C48 + C52 + C53 + C54 + C56 + C57
   + C58 + C60 + C61 + C64 + C68 + C69 + C71 + C72 + C73 + C75 + C76 + C79
   + C83 + C84 + C99 + C100 + C102 + C103 + C106 + C110 + C111 + C112
   + C114 + C115 + C118 + C122 + C123 + C125 + C126 + C129 + C133 + C134
   + C145 + C148 + C152 + C153 + C156 + C160 + C161 + C178 + C179 + C189
   <= 11
 R24: C88 + C91 + C92 + C94 + C137 + C138 + C140 + C162 + C164 + C170 <= 4
 R25: C19 + C20 + C21 + C23 + C24 + C25 + C27 + C28 + C31 + C35 + C36 + C37
   + C38 + C40 + C41 + C42 + C44 + C45 + C48 + C52 + C53 + C54 + C56 + C57
   + C58 + C60 + C61 + C64 + C68 + C69 + C71 + C72 + C73 + C75 + C76 + C79
   + C83 + C84 + C99 + C100 + C102 + C103 + C106 + C110 + C111 + C112
   + C114 + C115 + C118 + C122 + C123 + C125 + C126 + C129 + C133 + C134
   + C145 + C148 + C152 + C153 + C156 + C160 + C161 + C178 + C179 + C189
   <= 11
 R26: C19 + C20 + C21 + C23 + C24 + C25 + C27 + C28 + C31 + C35 + C36 + C37
   + C38 + C40 + C41 + C42 + C44 + C45 + C48 + C52 + C53 + C54 + C56 + C57
   + C58 + C60 + C61 + C64 + C68 + C69 + C71 + C72 + C73 + C75 + C76 + C79
   + C83 + C84 + C99 + C100 + C102 + C103 + C106 + C110 + C111 + C112
   + C114 + C115 + C118 + C122 + C123 + C125 + C126 + C129 + C133 + C134
   + C145 + C148 + C152 + C153 + C156 + C160 + C161 + C178 + C179 + C189
   <= 11
 R27: C19 + C20 + C21 + C23 + C24 + C25 + C27 + C28 + C31 + C35 + C36 + C37
   + C38 + C40 + C41 + C42 + C44 + C45 + C48 + C52 + C53 + C54 + C56 + C57
   + C58 + C60 + C61 + C64 + C68 + C69 + C71 + C72 + C73 + C75 + C76 + C79
   + C83 + C84 + C99 + C100 + C102 + C103 + C106 + C110 + C111 + C112
   + C114 + C115 + C118 + C122 + C123 + C125 + C126 + C129 + C133 + C134
   + C145 + C148 + C152 + C153 + C156 + C160 + C161 + C178 + C179 + C189
   <= 11
 R28: C88 + C91 + C92 + C94 + C137 + C138 + C140 + C162 + C164 + C170 <= 4
 R29: C19 + C20 + C21 + C23 + C24 + C25 + C27 + C28 + C31 + C35 + C36 + C37
   + C38 + C40 + C41 + C42 + C44 + C45 + C48 + C52 + C53 + C54 + C56 + C57
   + C58 + C60 + C61 + C64 + C68 + C69 + C71 + C72 + C73 + C75 + C76 + C79
   + C83 + C84 + C99 + C100 + C102 + C103 + C106 + C110 + C111 + C112
   + C114 + C115 + C118 + C122 + C123 + C125 + C126 + C129 + C133 + C134
   + C145 + C148 + C152 + C153 + C156 + C160 + C161 + C178 + C179 + C189
   <= 11
 R30: C19 + C20 + C21 + C23 + C24 + C25 + C27 + C28 + C31 + C35 + C36 + C37
   + C38 + C40 + C41 + C42 + C44 + C45 + C48 + C52 + C53 + C54 + C56 + C57
   + C58 + C60 + C61 + C64 + C68 + C69 + C71 + C72 + C73 + C75 + C76 + C79
   + C83 + C84 + C99 + C100 + C102 + C103 + C106 + C110 + C111 + C112
   + C114 + C115 + C118 + C122 + C123 + C125 + C126 + C129 + C133 + C134
   + C145 + C148 + C152 + C153 + C156 + C160 + C161 + C178 + C179 + C189
   <= 11
 R31: C88 + C91 + C92 + C94 + C137 + C138 + C140 + C162 + C164 + C170 <= 4
 R32: C88 + C91 + C92 + C94 + C137 + C138 + C140 + C162 + C164 + C170 <= 4
 R33: C19 + C20 + C21 + C23 + C24 + C25 + C27 + C28 + C31 + C35 + C36 + C37
   + C38 + C40 + C41 + C42 + C44 + C45 + C48 + C52 + C53 + C54 + C56 + C57
   + C58 + C60 + C61 + C64 + C68 + C69 + C71 + C72 + C73 + C75 + C76 + C79
   + C83 + C84 + C99 + C100 + C102 + C103 + C106 + C110 + C111 + C112
   + C114 + C115 + C118 + C122 + C123 + C125 + C126 + C129 + C133 + C134
   + C145 + C148 + C152 + C153 + C156 + C160 + C161 + C178 + C179 + C189
   <= 11
 R34: C88 + C91 + C92 + C94 + C137 + C138 + C140 + C162 + C164 + C170 <= 4
 R35: <= 0
 R36: <= 0
 R37: C19 + C20 + C21 + C23 + C24 + C25 + C27 + C28 + C31 + C35 + C36 + C37
   + C38 + C40 + C41 + C42 + C44 + C45 + C48 + C52 + C53 + C54 + C56 + C57
   + C58 + C60 + C61 + C64 + C68 + C69 + C71 + C72 + C73 + C75 + C76 + C79
   + C83 + C84 + C99 + C100 + C102 + C103 + C106 + C110 + C111 + C112
   + C114 + C115 + C118 + C122 + C123 + C125 + C126 + C129 + C133 + C134
   + C145 + C148 + C152 + C153 + C156 + C160 + C161 + C178 + C179 + C189
   <= 11
 R38: C19 + C20 + C21 + C23 + C24 + C25 + C27 + C28 + C31 + C35 + C36 + C37
   + C38 + C40 + C41 + C42 + C44 + C45 + C48 + C52 + C53 + C54 + C56 + C57
   + C58 + C60 + C61 + C64 + C68 + C69 + C71 + C72 + C73 + C75 + C76 + C79
   + C83 + C84 + C99 + C100 + C102 + C103 + C106 + C110 + C111 + C112
   + C114 + C115 + C118 + C122 + C123 + C125 + C126 + C129 + C133 + C134
   + C145 + C148 + C152 + C153 + C156 + C160 + C161 + C178 + C179 + C189
   <= 11
Bounds
Binaries
 C0 C1 C2 C3 C4 C5 C6 C7 C8 C9 C10 C11 C12 C13 C14 C15 C16 C17 C18 C19 C20
 C21 C22 C23 C24 C25 C26 C27 C28 C29 C30 C31 C32 C33 C34 C35 C36 C37 C38
 C39 C40 C41 C42 C43 C44 C45 C46 C47 C48 C49 C50 C51 C52 C53 C54 C55 C56
 C57 C58 C59 C60 C61 C62 C63 C64 C65 C66 C67 C68 C69 C70 C71 C72 C73 C74
 C75 C76 C77 C78 C79 C80 C81 C82 C83 C84 C85 C86 C87 C88 C89 C90 C91 C92
 C93 C94 C95 C96 C97 C98 C99 C100 C101 C102 C103 C104 C105 C106 C107 C108
 C109 C110 C111 C112 C113 C114 C115 C116 C117 C118 C119 C120 C121 C122 C123
 C124 C125 C126 C127 C128 C129 C130 C131 C132 C133 C134 C135 C136 C137 C138
 C139 C140 C141 C142 C143 C144 C145 C146 C147 C148 C149 C150 C151 C152 C153
 C154 C155 C156 C157 C158 C159 C160 C161 C162 C163 C164 C165 C166 C167 C168
 C169 C170 C171 C172 C173 C174 C175 C176 C177 C178 C179 C180 C181 C182 C183
 C184 C185 C186 C187 C188 C189
End
